(set-info :smt-lib-version 2.6)
(set-logic UF)
(set-info :source |Benchmarks from the paper: "Extending Sledgehammer with SMT Solvers" by Jasmin Blanchette, Sascha Bohme, and Lawrence C. Paulson, CADE 2011.  Translated to SMT2 by Andrew Reynolds and Morgan Deters.|)
(set-info :category "industrial")
(set-info :status unsat)
(declare-sort S1 0)
(declare-sort S2 0)
(declare-sort S3 0)
(declare-sort S4 0)
(declare-sort S5 0)
(declare-sort S6 0)
(declare-sort S7 0)
(declare-sort S8 0)
(declare-sort S9 0)
(declare-sort S10 0)
(declare-sort S11 0)
(declare-sort S12 0)
(declare-sort S13 0)
(declare-sort S14 0)
(declare-sort S15 0)
(declare-sort S16 0)
(declare-sort S17 0)
(declare-sort S18 0)
(declare-fun f1 () S1)
(declare-fun f2 () S1)
(declare-fun f3 (S2 S3) S1)
(declare-fun f4 () S2)
(declare-fun f5 (S4 S3) S3)
(declare-fun f6 (S5 S6) S4)
(declare-fun f7 () S5)
(declare-fun f8 () S6)
(declare-fun f9 () S3)
(declare-fun f10 () S6)
(declare-fun f11 (S7 S6) S6)
(declare-fun f12 (S8 S6) S7)
(declare-fun f13 () S8)
(declare-fun f14 () S8)
(declare-fun f15 () S6)
(declare-fun f16 (S9 S3) S6)
(declare-fun f17 (S10 S3) S9)
(declare-fun f18 () S10)
(declare-fun f19 () S3)
(declare-fun f20 () S6)
(declare-fun f21 (S6 S6 S3) S2)
(declare-fun f22 () S3)
(declare-fun f23 () S6)
(declare-fun f24 (S11 S2) S6)
(declare-fun f25 () S11)
(declare-fun f26 (S14 S13) S13)
(declare-fun f27 (S15 S12) S14)
(declare-fun f28 () S15)
(declare-fun f29 (S17 S12) S12)
(declare-fun f30 (S18 S16) S17)
(declare-fun f31 () S18)
(declare-fun f32 () S11)
(declare-fun f33 (S6 S6) S1)
(declare-fun f34 () S8)
(declare-fun f35 () S8)
(declare-fun f36 () S6)
(assert (not (= f1 f2)))
(assert (not (= (= (f3 f4 (f5 (f6 f7 f8) f9)) f1) (= (f3 f4 (f5 (f6 f7 f10) f9)) f1))))
(assert (let ((?v_0 (f12 f14 f15)) (?v_1 (f16 (f17 f18 f19) f9))) (= (f11 (f12 f13 (f11 ?v_0 (f11 (f12 f14 f8) ?v_1))) f20) (f11 (f12 f13 (f11 ?v_0 (f11 (f12 f14 f10) ?v_1))) f20))))
(assert (= f4 (f21 f20 f15 f22)))
(assert (let ((?v_0 (f12 f14 f15)) (?v_1 (f16 (f17 f18 f19) f9))) (= (f11 (f12 f13 (f11 ?v_0 (f11 (f12 f14 f8) ?v_1))) f20) (f11 (f12 f13 (f11 ?v_0 (f11 (f12 f14 f10) ?v_1))) f20))))
(assert (= f22 (f5 (f6 f7 f23) f19)))
(assert (= (f24 f25 f4) f23))
(assert (forall ((?v0 S6) (?v1 S3) (?v2 S6) (?v3 S3)) (= (= (f5 (f6 f7 ?v0) ?v1) (f5 (f6 f7 ?v2) ?v3)) (and (= ?v0 ?v2) (= ?v1 ?v3)))))
(assert (forall ((?v0 S12) (?v1 S13) (?v2 S12) (?v3 S13)) (= (= (f26 (f27 f28 ?v0) ?v1) (f26 (f27 f28 ?v2) ?v3)) (and (= ?v0 ?v2) (= ?v1 ?v3)))))
(assert (forall ((?v0 S16) (?v1 S12) (?v2 S16) (?v3 S12)) (= (= (f29 (f30 f31 ?v0) ?v1) (f29 (f30 f31 ?v2) ?v3)) (and (= ?v0 ?v2) (= ?v1 ?v3)))))
(assert (=> (forall ((?v0 S3)) (=> (= f22 (f5 (f6 f7 f23) ?v0)) false)) false))
(assert (forall ((?v0 S6) (?v1 S6) (?v2 S3)) (= (f24 f32 (f21 ?v0 ?v1 ?v2)) ?v0)))
(assert (forall ((?v0 S6) (?v1 S6) (?v2 S3) (?v3 S3)) (= (= (f3 (f21 ?v0 ?v1 ?v2) ?v3) f1) (= (f33 ?v0 (f11 (f12 f14 ?v1) (f16 (f17 f18 ?v2) ?v3))) f1))))
(assert (forall ((?v0 S6) (?v1 S3) (?v2 S6) (?v3 S3)) (= (f16 (f17 f18 (f5 (f6 f7 ?v0) ?v1)) (f5 (f6 f7 ?v2) ?v3)) (f11 (f12 f14 (f11 (f12 f34 ?v0) ?v2)) (f16 (f17 f18 ?v1) ?v3)))))
(assert (forall ((?v0 S6) (?v1 S6)) (= (f11 (f12 f14 ?v0) ?v1) (f11 (f12 f14 ?v1) ?v0))))
(assert (forall ((?v0 S6) (?v1 S6) (?v2 S6)) (let ((?v_1 (f12 f14 ?v0)) (?v_0 (f12 f14 ?v1))) (= (f11 ?v_1 (f11 ?v_0 ?v2)) (f11 ?v_0 (f11 ?v_1 ?v2))))))
(assert (forall ((?v0 S6) (?v1 S6) (?v2 S6)) (let ((?v_0 (f12 f14 ?v0))) (= (f11 (f12 f14 (f11 ?v_0 ?v1)) ?v2) (f11 ?v_0 (f11 (f12 f14 ?v1) ?v2))))))
(assert (forall ((?v0 S6) (?v1 S6)) (= (f33 ?v0 (f11 (f12 f34 ?v0) ?v1)) f1)))
(assert (forall ((?v0 S6)) (= (f11 (f12 f34 f23) ?v0) ?v0)))
(assert (forall ((?v0 S6) (?v1 S6)) (=> (= (f33 ?v0 ?v1) f1) (= (f11 (f12 f34 ?v0) (f11 (f12 f35 ?v1) ?v0)) ?v1))))
(assert (forall ((?v0 S6) (?v1 S6)) (=> (forall ((?v2 S6) (?v3 S6)) (=> (= ?v2 (f11 (f12 f35 ?v0) ?v1)) (=> (= ?v3 (f11 (f12 f13 ?v0) ?v1)) (=> (= ?v0 (f11 (f12 f14 (f11 (f12 f34 ?v2) ?v1)) ?v3)) false)))) false)))
(assert (forall ((?v0 S6) (?v1 S6)) (= (= (f11 (f12 f13 ?v0) ?v1) f36) (exists ((?v2 S6)) (= ?v0 (f11 (f12 f34 ?v1) ?v2))))))
(check-sat)
(exit)
